0 0 0 0
0 1 0 0
0 2 0 0
0 3 0 0
0 4 0 9
0 5 0 10
0 6 0 9
0 7 0 13
0 8 0 66
0 9 0 4
0 10 0 13
0 11 0 21
0 12 0 6
0 13 0 57
0 14 0 4
0 15 0 9
0 16 0 47
0 17 0 6
0 18 0 11
0 19 0 12
0 20 0 13
0 21 0 11
0 22 0 25
0 23 0 18
0 24 0 40
0 25 0 32
0 26 0 25
0 27 0 54
0 28 0 29
0 29 0 66
0 30 0 22
0 31 0 17
0 32 0 30
0 33 0 15
0 34 0 71
0 35 0 38
0 36 0 47
0 37 0 47
0 38 0 50
0 39 0 33
0 40 0 57
0 41 0 23
0 42 0 29
0 43 0 47
0 44 0 65
0 45 0 40
0 46 0 60
0 47 0 42
0 48 0 66
0 49 0 72
0 50 0 61
0 51 0 72
0 52 0 66
0 53 0 70
0 54 0 60
0 55 0 70
0 56 0 72
0 57 0 76
0 58 0 78
0 59 0 76
0 60 0 80
0 61 0 87
